NAME          TESTPROB
ROWS
 N  COST
 E  MYEQN
COLUMNS
    XONE      MYEQN                1  COST                 1
    YTWO      MYEQN                1  COST                 1
    ZTHREE    MYEQN                1  COST                 1
RHS
    RHS1      MYEQN                3
BOUNDS
 LI BND1      XONE                 0
 UI BND1      XONE                 1
 LI BND1      YTWO                 0
 UI BND1      YTWO                 1
 LI BND1      ZTHREE               0
 UI BND1      ZTHREE               1
ENDATA